36288 36473 
32517 37285 
36563 36418 
36672 36383 
36342 36449 
32768 37284 
32972 37280 
40687 34178 
36421 36425 
34880 36989 
36138 36567 
37151 36133 
37251 36129 
37003 36228 
37751 35921 
37503 36020 
37112 36140 
37325 36073 
33223 37279 
34067 37199 
34171 37187 
34497 37126 
34606 37091 
36180 36542 
35765 36724 
35908 36674 
35993 36603 
36354 36441 
35524 36764 
37606 35957 
37358 36056 
37893 35869 
38339 35636 
37424 36030 
37467 36021 
34436 37156 
34852 37007 
35387 36820 
35139 36919 
33985 37238 
35267 36870 
34545 37121 
34961 36972 
40591 34233 
35458 36793 
35704 36754 
36763 36347 
36102 36568 
34791 37037 
35326 36850 
35078 36949 
35206 36900 
33673 37269 
35013 36965 
37653 35935 
38933 35290 
38700 35456 
38785 35385 
39140 35213 
39586 34980 
38998 35265 
38212 35674 
39285 35177 
38875 35338 
38958 35286 
38395 35589 
38971 35283 
38040 35761 
